NAME : Instance 12
COMMENT : Comment 12
TYPE : TSP
DIMENSION: 30
EDGE_WEIGHT_TYPE : EUC_2D
NODE_COORD_SECTION
  1 1331 1929
  2 691 252
  3 1174 1019
  4 1019 687
  5 1715 954
  6 6 478
  7 602 805
  8 672 1342
  9 580 1419
  10 390 1550
  11 1909 1583
  12 340 1471
  13 1346 673
  14 718 913
  15 862 311
  16 210 4
  17 297 471
  18 432 65
  19 1007 971
  20 543 1526
  21 1688 1869
  22 1259 1053
  23 523 1098
  24 1333 1769
  25 1541 1905
  26 278 1479
  27 418 1401
  28 217 143
  29 927 1251
  30 1530 921
EOF
